
Gurobi 9.1.2 (win64, Java) logging started Tue Nov  9 15:34:37 2021

Academic license - for non-commercial use only - expires 2022-10-30
Gurobi Optimizer version 9.1.2 build v9.1.2rc0 (win64)
Thread count: 6 physical cores, 12 logical processors, using up to 12 threads
Optimize a model with 450 rows, 45000 columns and 90000 nonzeros
Model fingerprint: 0x4c60d9b1
Variable types: 0 continuous, 45000 integer (45000 binary)
Coefficient statistics:
  Matrix range     [1e+00, 1e+03]
  Objective range  [8e+00, 1e+03]
  Bounds range     [1e+00, 1e+00]
  RHS range        [1e+00, 1e+03]
Found heuristic solution: objective 83895.000000
Presolve removed 115 rows and 22520 columns
Presolve time: 0.48s
Presolved: 335 rows, 22480 columns, 44936 nonzeros
Found heuristic solution: objective 84549.000000
Variable types: 0 continuous, 22480 integer (22480 binary)
Presolve removed 0 rows and 21 columns
Presolved: 335 rows, 22459 columns, 44915 nonzeros


Root relaxation: objective 8.637393e+04, 370 iterations, 0.02 seconds

    Nodes    |    Current Node    |     Objective Bounds      |     Work
 Expl Unexpl |  Obj  Depth IntInf | Incumbent    BestBd   Gap | It/Node Time

     0     0 86373.9265    0    1 84549.0000 86373.9265  2.16%     -    0s
H    0     0                    86123.000000 86373.9265  0.29%     -    0s
H    0     0                    86273.000000 86373.9265  0.12%     -    0s
H    0     0                    86309.000000 86373.9265  0.08%     -    0s

Cutting planes:
  Cover: 1

Explored 1 nodes (3105 simplex iterations) in 0.75 seconds
Thread count was 12 (of 12 available processors)

Solution count 5: 86309 86273 86123 ... 83895

Optimal solution found (tolerance 1.00e-04)
Best objective 8.630900000000e+04, best bound 8.630900000000e+04, gap 0.0000%

Gurobi 9.1.2 (win64, Java) logging started Tue Nov  9 15:35:38 2021

Academic license - for non-commercial use only - expires 2022-10-30
Gurobi Optimizer version 9.1.2 build v9.1.2rc0 (win64)
Thread count: 6 physical cores, 12 logical processors, using up to 12 threads
Optimize a model with 450 rows, 45000 columns and 90000 nonzeros
Model fingerprint: 0x4c60d9b1
Variable types: 0 continuous, 45000 integer (45000 binary)
Coefficient statistics:
  Matrix range     [1e+00, 1e+03]
  Objective range  [8e+00, 1e+03]
  Bounds range     [1e+00, 1e+00]
  RHS range        [1e+00, 1e+03]
Found heuristic solution: objective 83895.000000
Presolve removed 115 rows and 22520 columns
Presolve time: 0.40s
Presolved: 335 rows, 22480 columns, 44936 nonzeros
Found heuristic solution: objective 84549.000000
Variable types: 0 continuous, 22480 integer (22480 binary)
Presolve removed 0 rows and 21 columns
Presolved: 335 rows, 22459 columns, 44915 nonzeros


Root relaxation: objective 8.637393e+04, 370 iterations, 0.02 seconds

    Nodes    |    Current Node    |     Objective Bounds      |     Work
 Expl Unexpl |  Obj  Depth IntInf | Incumbent    BestBd   Gap | It/Node Time

     0     0 86373.9265    0    1 84549.0000 86373.9265  2.16%     -    0s
H    0     0                    86123.000000 86373.9265  0.29%     -    0s
H    0     0                    86273.000000 86373.9265  0.12%     -    0s
H    0     0                    86309.000000 86373.9265  0.08%     -    0s

Cutting planes:
  Cover: 1

Explored 1 nodes (3105 simplex iterations) in 0.66 seconds
Thread count was 12 (of 12 available processors)

Solution count 5: 86309 86273 86123 ... 83895

Optimal solution found (tolerance 1.00e-04)
Best objective 8.630900000000e+04, best bound 8.630900000000e+04, gap 0.0000%

Gurobi 9.1.2 (win64, Java) logging started Tue Nov  9 15:36:25 2021

Academic license - for non-commercial use only - expires 2022-10-30
Gurobi Optimizer version 9.1.2 build v9.1.2rc0 (win64)
Thread count: 6 physical cores, 12 logical processors, using up to 12 threads
Optimize a model with 450 rows, 45000 columns and 90000 nonzeros
Model fingerprint: 0x4c60d9b1
Variable types: 0 continuous, 45000 integer (45000 binary)
Coefficient statistics:
  Matrix range     [1e+00, 1e+03]
  Objective range  [8e+00, 1e+03]
  Bounds range     [1e+00, 1e+00]
  RHS range        [1e+00, 1e+03]
Found heuristic solution: objective 83895.000000
Presolve removed 115 rows and 22520 columns
Presolve time: 0.39s
Presolved: 335 rows, 22480 columns, 44936 nonzeros
Found heuristic solution: objective 84549.000000
Variable types: 0 continuous, 22480 integer (22480 binary)
Presolve removed 0 rows and 21 columns
Presolved: 335 rows, 22459 columns, 44915 nonzeros


Root relaxation: objective 8.637393e+04, 370 iterations, 0.02 seconds

    Nodes    |    Current Node    |     Objective Bounds      |     Work
 Expl Unexpl |  Obj  Depth IntInf | Incumbent    BestBd   Gap | It/Node Time

     0     0 86373.9265    0    1 84549.0000 86373.9265  2.16%     -    0s
H    0     0                    86123.000000 86373.9265  0.29%     -    0s
H    0     0                    86273.000000 86373.9265  0.12%     -    0s
H    0     0                    86309.000000 86373.9265  0.08%     -    0s

Cutting planes:
  Cover: 1

Explored 1 nodes (3105 simplex iterations) in 0.66 seconds
Thread count was 12 (of 12 available processors)

Solution count 5: 86309 86273 86123 ... 83895

Optimal solution found (tolerance 1.00e-04)
Best objective 8.630900000000e+04, best bound 8.630900000000e+04, gap 0.0000%

Gurobi 9.1.2 (win64, Java) logging started Tue Nov  9 15:36:55 2021

Academic license - for non-commercial use only - expires 2022-10-30
Gurobi Optimizer version 9.1.2 build v9.1.2rc0 (win64)
Thread count: 6 physical cores, 12 logical processors, using up to 12 threads
Optimize a model with 450 rows, 45000 columns and 90000 nonzeros
Model fingerprint: 0x4c60d9b1
Variable types: 0 continuous, 45000 integer (45000 binary)
Coefficient statistics:
  Matrix range     [1e+00, 1e+03]
  Objective range  [8e+00, 1e+03]
  Bounds range     [1e+00, 1e+00]
  RHS range        [1e+00, 1e+03]
Found heuristic solution: objective 83895.000000
Presolve removed 115 rows and 22520 columns
Presolve time: 0.31s
Presolved: 335 rows, 22480 columns, 44936 nonzeros
Found heuristic solution: objective 84549.000000
Variable types: 0 continuous, 22480 integer (22480 binary)
Presolve removed 0 rows and 21 columns
Presolved: 335 rows, 22459 columns, 44915 nonzeros


Root relaxation: objective 8.637393e+04, 370 iterations, 0.02 seconds

    Nodes    |    Current Node    |     Objective Bounds      |     Work
 Expl Unexpl |  Obj  Depth IntInf | Incumbent    BestBd   Gap | It/Node Time

     0     0 86373.9265    0    1 84549.0000 86373.9265  2.16%     -    0s
H    0     0                    86123.000000 86373.9265  0.29%     -    0s
H    0     0                    86273.000000 86373.9265  0.12%     -    0s
H    0     0                    86309.000000 86373.9265  0.08%     -    0s

Cutting planes:
  Cover: 1

Explored 1 nodes (3105 simplex iterations) in 0.57 seconds
Thread count was 12 (of 12 available processors)

Solution count 5: 86309 86273 86123 ... 83895

Optimal solution found (tolerance 1.00e-04)
Best objective 8.630900000000e+04, best bound 8.630900000000e+04, gap 0.0000%
